tsp_instances/TSP20/instance7.tsp
NODE_COORD_SECTION
0 183 131
1 85 181
2 78 178
3 66 20
4 72 89
5 3 7
6 183 32
7 131 184
8 173 178
9 2 30
10 194 48
11 162 10
12 164 20
13 118 122
14 104 127
15 41 7
16 12 197
17 14 20
18 21 111
19 152 46
