tsp_instances/TSP20/instance7.opt.tour
TOUR_SECTION
1
9
8
2
3
17
19
10
6
18
16
4
5
15
14
20
13
12
7
11
-1